MLT07
Position Depot: Center
Horizon for Depot: Large
Position of customers: Mixt
Distribution of the demand: Large
Width of time windows: Tight
Distribution of the service: Small

VEHICLE 
NUMBER 	 CAPACITY 
 7 	 	 664 
 
CUSTOMER
CUST NO. 	 XCOORD.  	 YCOORD. 	 DEMAND 	 READY TIME 	 DUE DATE 	 SERVICE TIME 
 0 	 	 500 	 	 500 	 	 0 	 	 0 	 	 4799 	 	 0 
  1 	 	 538 	 	 653 	 	 44 	 	 2231 	 	 2376 	 	 59 
  2 	 	 674 	 	 429 	 	 35 	 	 3039 	 	 3167 	 	 69 
  3 	 	 159 	 	 678 	 	 75 	 	 4547 	 	 4626 	 	 86 
  4 	 	 908 	 	 618 	 	 45 	 	 2504 	 	 2585 	 	 72 
  5 	 	 132 	 	 263 	 	 95 	 	 2686 	 	 2767 	 	 61 
  6 	 	 392 	 	 714 	 	 77 	 	 3222 	 	 3348 	 	 90 
  7 	 	 362 	 	 195 	 	 31 	 	 3425 	 	 3602 	 	 69 
  8 	 	 247 	 	 634 	 	 85 	 	 1555 	 	 1670 	 	 96 
  9 	 	 414 	 	 681 	 	 86 	 	 3357 	 	 3535 	 	 84 
  10 	 	 564 	 	 621 	 	 82 	 	 3713 	 	 3781 	 	 99 
  11 	 	 495 	 	 537 	 	 49 	 	 2213 	 	 2277 	 	 100 
  12 	 	 228 	 	 696 	 	 89 	 	 1895 	 	 2064 	 	 60 
  13 	 	 155 	 	 741 	 	 43 	 	 3074 	 	 3181 	 	 51 
  14 	 	 457 	 	 168 	 	 46 	 	 300 	 	 368 	 	 55 
  15 	 	 231 	 	 672 	 	 28 	 	 3059 	 	 3251 	 	 70 
  16 	 	 113 	 	 253 	 	 73 	 	 3756 	 	 3902 	 	 65 
  17 	 	 315 	 	 239 	 	 47 	 	 1652 	 	 1814 	 	 55 
  18 	 	 925 	 	 746 	 	 62 	 	 369 	 	 540 	 	 64 
  19 	 	 731 	 	 426 	 	 3 	 	 1499 	 	 1681 	 	 69 
  20 	 	 249 	 	 734 	 	 51 	 	 4551 	 	 4724 	 	 67 
  21 	 	 350 	 	 730 	 	 76 	 	 2733 	 	 2932 	 	 66 
  22 	 	 165 	 	 664 	 	 79 	 	 1525 	 	 1706 	 	 79 
  23 	 	 142 	 	 274 	 	 14 	 	 1162 	 	 1274 	 	 51 
  24 	 	 181 	 	 713 	 	 1 	 	 2017 	 	 2171 	 	 84 
  25 	 	 425 	 	 224 	 	 81 	 	 4416 	 	 4523 	 	 98 
  26 	 	 420 	 	 128 	 	 69 	 	 4553 	 	 4739 	 	 97 
  27 	 	 384 	 	 228 	 	 22 	 	 3507 	 	 3645 	 	 78 
  28 	 	 907 	 	 678 	 	 97 	 	 300 	 	 488 	 	 90 
  29 	 	 191 	 	 715 	 	 75 	 	 4547 	 	 4622 	 	 61 
  30 	 	 179 	 	 678 	 	 92 	 	 810 	 	 867 	 	 58 
  31 	 	 139 	 	 633 	 	 50 	 	 1764 	 	 1859 	 	 78 
  32 	 	 543 	 	 691 	 	 50 	 	 1905 	 	 2033 	 	 81 
  33 	 	 478 	 	 128 	 	 18 	 	 3255 	 	 3417 	 	 67 
  34 	 	 434 	 	 739 	 	 40 	 	 4451 	 	 4617 	 	 74 
  35 	 	 737 	 	 375 	 	 70 	 	 1471 	 	 1527 	 	 85 
  36 	 	 343 	 	 247 	 	 86 	 	 4067 	 	 4218 	 	 80 
  37 	 	 411 	 	 752 	 	 42 	 	 1214 	 	 1344 	 	 56 
  38 	 	 858 	 	 651 	 	 61 	 	 2941 	 	 3130 	 	 99 
  39 	 	 559 	 	 794 	 	 80 	 	 999 	 	 1051 	 	 54 
  40 	 	 694 	 	 409 	 	 37 	 	 2350 	 	 2464 	 	 100 
  41 	 	 544 	 	 644 	 	 60 	 	 1429 	 	 1564 	 	 51 
  42 	 	 365 	 	 720 	 	 37 	 	 3970 	 	 4088 	 	 57 
  43 	 	 402 	 	 743 	 	 21 	 	 3159 	 	 3297 	 	 58 
  44 	 	 133 	 	 628 	 	 16 	 	 4656 	 	 4799 	 	 70 
  45 	 	 524 	 	 632 	 	 87 	 	 4277 	 	 4375 	 	 86 
  46 	 	 107 	 	 221 	 	 30 	 	 2825 	 	 2979 	 	 96 
  47 	 	 187 	 	 288 	 	 54 	 	 4479 	 	 4584 	 	 51 
  48 	 	 557 	 	 705 	 	 78 	 	 1538 	 	 1724 	 	 94 
  49 	 	 925 	 	 668 	 	 7 	 	 339 	 	 502 	 	 59 
  50 	 	 936 	 	 588 	 	 30 	 	 1953 	 	 2069 	 	 70 
  51 	 	 31 	 	 819 	 	 20 	 	 450 	 	 623 	 	 88 
  52 	 	 931 	 	 606 	 	 41 	 	 3946 	 	 4111 	 	 61 
  53 	 	 32 	 	 884 	 	 19 	 	 4381 	 	 4441 	 	 79 
  54 	 	 170 	 	 406 	 	 49 	 	 1635 	 	 1764 	 	 92 
  55 	 	 397 	 	 570 	 	 42 	 	 876 	 	 1014 	 	 62 
  56 	 	 317 	 	 634 	 	 11 	 	 4126 	 	 4209 	 	 70 
  57 	 	 845 	 	 948 	 	 22 	 	 2826 	 	 3025 	 	 56 
  58 	 	 425 	 	 829 	 	 61 	 	 1352 	 	 1482 	 	 56 
  59 	 	 804 	 	 832 	 	 37 	 	 4254 	 	 4386 	 	 74 
  60 	 	 427 	 	 159 	 	 12 	 	 202 	 	 383 	 	 96 
  61 	 	 118 	 	 128 	 	 25 	 	 1803 	 	 1986 	 	 96 
  62 	 	 349 	 	 350 	 	 68 	 	 4434 	 	 4498 	 	 80 
  63 	 	 89 	 	 326 	 	 65 	 	 2038 	 	 2110 	 	 99 
  64 	 	 219 	 	 142 	 	 59 	 	 1989 	 	 2103 	 	 71 
  65 	 	 388 	 	 147 	 	 6 	 	 570 	 	 652 	 	 76 
  66 	 	 959 	 	 275 	 	 65 	 	 3254 	 	 3406 	 	 73 
  67 	 	 828 	 	 939 	 	 25 	 	 2476 	 	 2571 	 	 53 
  68 	 	 72 	 	 373 	 	 6 	 	 1908 	 	 2100 	 	 51 
  69 	 	 766 	 	 950 	 	 68 	 	 1698 	 	 1868 	 	 78 
  70 	 	 183 	 	 835 	 	 76 	 	 2415 	 	 2474 	 	 50 
  71 	 	 978 	 	 41 	 	 69 	 	 1864 	 	 2060 	 	 71 
  72 	 	 485 	 	 966 	 	 24 	 	 4039 	 	 4215 	 	 54 
  73 	 	 937 	 	 863 	 	 3 	 	 552 	 	 624 	 	 74 
  74 	 	 238 	 	 570 	 	 66 	 	 1137 	 	 1314 	 	 89 
  75 	 	 898 	 	 345 	 	 61 	 	 549 	 	 607 	 	 97 
  76 	 	 432 	 	 116 	 	 59 	 	 861 	 	 950 	 	 79 
  77 	 	 57 	 	 906 	 	 47 	 	 703 	 	 880 	 	 52 
  78 	 	 88 	 	 733 	 	 9 	 	 1183 	 	 1341 	 	 94 
  79 	 	 315 	 	 43 	 	 91 	 	 868 	 	 1036 	 	 78 
  80 	 	 7 	 	 836 	 	 48 	 	 3806 	 	 3954 	 	 95 
  81 	 	 213 	 	 677 	 	 92 	 	 3276 	 	 3365 	 	 53 
  82 	 	 762 	 	 988 	 	 54 	 	 4426 	 	 4612 	 	 81 
  83 	 	 888 	 	 686 	 	 36 	 	 4494 	 	 4624 	 	 94 
  84 	 	 715 	 	 797 	 	 22 	 	 3191 	 	 3367 	 	 70 
  85 	 	 515 	 	 543 	 	 56 	 	 3014 	 	 3184 	 	 69 
  86 	 	 116 	 	 297 	 	 49 	 	 335 	 	 477 	 	 84 
  87 	 	 484 	 	 889 	 	 69 	 	 1316 	 	 1369 	 	 96 
  88 	 	 245 	 	 40 	 	 93 	 	 475 	 	 578 	 	 89 
  89 	 	 574 	 	 357 	 	 48 	 	 63 	 	 177 	 	 85 
  90 	 	 911 	 	 119 	 	 92 	 	 1982 	 	 2043 	 	 89 
  91 	 	 662 	 	 389 	 	 10 	 	 3519 	 	 3718 	 	 64 
  92 	 	 899 	 	 458 	 	 78 	 	 2731 	 	 2917 	 	 58 
  93 	 	 211 	 	 178 	 	 100 	 	 1081 	 	 1175 	 	 97 
  94 	 	 488 	 	 108 	 	 52 	 	 1691 	 	 1785 	 	 54 
  95 	 	 785 	 	 154 	 	 36 	 	 2760 	 	 2918 	 	 66 
  96 	 	 33 	 	 843 	 	 58 	 	 3036 	 	 3128 	 	 56 
  97 	 	 334 	 	 588 	 	 19 	 	 1073 	 	 1156 	 	 96 
  98 	 	 157 	 	 989 	 	 29 	 	 4069 	 	 4133 	 	 50 
  99 	 	 204 	 	 456 	 	 98 	 	 3001 	 	 3088 	 	 77 
  100 	 	 276 	 	 554 	 	 54 	 	 4329 	 	 4478 	 	 84 
 